NAME          DCAP_2_4_3_500_SS459
ROWS
 N  OBJ
 L  CON1
 L  CON2
 L  CON3
 L  CON4
 L  CON5
 L  CON6
 L  CON7
 L  CON8
 L  CON9
 L  CON10
 L  CON11
 L  CON12
 E  CON13
 E  CON14
 E  CON15
 E  CON16
 E  CON17
 E  CON18
 E  CON19
 E  CON20
 E  CON21
 E  CON22
 E  CON23
 E  CON24
COLUMNS
    x[1,1]    OBJ       6.180167      CON1      1.000000    
    x[1,1]    CON7      -1.000000     CON8      -1.000000   
    x[1,1]    CON9      -1.000000   
    x[1,2]    OBJ       6.563535      CON2      1.000000    
    x[1,2]    CON8      -1.000000     CON9      -1.000000   
    x[1,3]    OBJ       7.443064      CON3      1.000000    
    x[1,3]    CON9      -1.000000   
    x[2,1]    OBJ       6.732585      CON4      1.000000    
    x[2,1]    CON10     -1.000000     CON11     -1.000000   
    x[2,1]    CON12     -1.000000   
    x[2,2]    OBJ       5.039546      CON5      1.000000    
    x[2,2]    CON11     -1.000000     CON12     -1.000000   
    x[2,3]    OBJ       6.054841      CON6      1.000000    
    x[2,3]    CON12     -1.000000   
    MARKER    'MARKER'                'INTORG'
    u[1,1]    OBJ       48.076654     CON1      -1.000000   
    u[1,2]    OBJ       20.066487     CON2      -1.000000   
    u[1,3]    OBJ       32.230043     CON3      -1.000000   
    u[2,1]    OBJ       49.996186     CON4      -1.000000   
    u[2,2]    OBJ       49.466655     CON5      -1.000000   
    u[2,3]    OBJ       27.484319     CON6      -1.000000   
    y[1,1,1]  OBJ       8.373119      CON7      0.824750    
    y[1,1,1]  CON13     1.000000    
    y[1,1,2]  OBJ       9.589236      CON8      1.383900    
    y[1,1,2]  CON14     1.000000    
    y[1,1,3]  OBJ       7.001730      CON9      1.436596    
    y[1,1,3]  CON15     1.000000    
    y[1,2,1]  OBJ       9.666574      CON7      0.848478    
    y[1,2,1]  CON16     1.000000    
    y[1,2,2]  OBJ       9.805408      CON8      1.287975    
    y[1,2,2]  CON17     1.000000    
    y[1,2,3]  OBJ       6.132436      CON9      1.025935    
    y[1,2,3]  CON18     1.000000    
    y[1,3,1]  OBJ       5.784445      CON7      1.202488    
    y[1,3,1]  CON19     1.000000    
    y[1,3,2]  OBJ       9.769880      CON8      1.030489    
    y[1,3,2]  CON20     1.000000    
    y[1,3,3]  OBJ       6.737271      CON9      1.198330    
    y[1,3,3]  CON21     1.000000    
    y[1,4,1]  OBJ       7.735669      CON7      1.321407    
    y[1,4,1]  CON22     1.000000    
    y[1,4,2]  OBJ       9.391211      CON8      1.118942    
    y[1,4,2]  CON23     1.000000    
    y[1,4,3]  OBJ       6.927276      CON9      0.761012    
    y[1,4,3]  CON24     1.000000    
    y[2,1,1]  OBJ       8.950080      CON10     0.824750    
    y[2,1,1]  CON13     1.000000    
    y[2,1,2]  OBJ       5.252374      CON11     1.383900    
    y[2,1,2]  CON14     1.000000    
    y[2,1,3]  OBJ       6.897320      CON12     1.436596    
    y[2,1,3]  CON15     1.000000    
    y[2,2,1]  OBJ       6.173073      CON10     0.848478    
    y[2,2,1]  CON16     1.000000    
    y[2,2,2]  OBJ       7.514190      CON11     1.287975    
    y[2,2,2]  CON17     1.000000    
    y[2,2,3]  OBJ       8.343732      CON12     1.025935    
    y[2,2,3]  CON18     1.000000    
    y[2,3,1]  OBJ       7.527292      CON10     1.202488    
    y[2,3,1]  CON19     1.000000    
    y[2,3,2]  OBJ       7.990316      CON11     1.030489    
    y[2,3,2]  CON20     1.000000    
    y[2,3,3]  OBJ       8.538764      CON12     1.198330    
    y[2,3,3]  CON21     1.000000    
    y[2,4,1]  OBJ       6.527869      CON10     1.321407    
    y[2,4,1]  CON22     1.000000    
    y[2,4,2]  OBJ       9.957054      CON11     1.118942    
    y[2,4,2]  CON23     1.000000    
    y[2,4,3]  OBJ       5.826015      CON12     0.761012    
    y[2,4,3]  CON24     1.000000    
    z[1,1]    OBJ       919.959366    CON13     1.000000    
    z[1,2]    OBJ       836.578570    CON14     1.000000    
    z[1,3]    OBJ       881.598733    CON15     1.000000    
    z[2,1]    OBJ       962.060539    CON16     1.000000    
    z[2,2]    OBJ       594.989025    CON17     1.000000    
    z[2,3]    OBJ       857.117015    CON18     1.000000    
    z[3,1]    OBJ       807.360464    CON19     1.000000    
    z[3,2]    OBJ       828.692421    CON20     1.000000    
    z[3,3]    OBJ       980.211473    CON21     1.000000    
    z[4,1]    OBJ       534.295338    CON22     1.000000    
    z[4,2]    OBJ       708.553812    CON23     1.000000    
    z[4,3]    OBJ       555.806507    CON24     1.000000    
    MARKER    'MARKER'                 'INTEND'
RHS
    RHS       CON1      -0.000000     CON2      -0.000000   
    RHS       CON3      -0.000000     CON4      -0.000000   
    RHS       CON5      -0.000000     CON6      -0.000000   
    RHS       CON7      -0.000000     CON8      -0.000000   
    RHS       CON9      -0.000000     CON10     -0.000000   
    RHS       CON11     -0.000000     CON12     -0.000000   
    RHS       CON13     1.000000      CON14     1.000000    
    RHS       CON15     1.000000      CON16     1.000000    
    RHS       CON17     1.000000      CON18     1.000000    
    RHS       CON19     1.000000      CON20     1.000000    
    RHS       CON21     1.000000      CON22     1.000000    
    RHS       CON23     1.000000      CON24     1.000000    
BOUNDS
 BV BOUND     u[1,1]  
 BV BOUND     u[1,2]  
 BV BOUND     u[1,3]  
 BV BOUND     u[2,1]  
 BV BOUND     u[2,2]  
 BV BOUND     u[2,3]  
 BV BOUND     y[1,1,1]
 BV BOUND     y[1,1,2]
 BV BOUND     y[1,1,3]
 BV BOUND     y[1,2,1]
 BV BOUND     y[1,2,2]
 BV BOUND     y[1,2,3]
 BV BOUND     y[1,3,1]
 BV BOUND     y[1,3,2]
 BV BOUND     y[1,3,3]
 BV BOUND     y[1,4,1]
 BV BOUND     y[1,4,2]
 BV BOUND     y[1,4,3]
 BV BOUND     y[2,1,1]
 BV BOUND     y[2,1,2]
 BV BOUND     y[2,1,3]
 BV BOUND     y[2,2,1]
 BV BOUND     y[2,2,2]
 BV BOUND     y[2,2,3]
 BV BOUND     y[2,3,1]
 BV BOUND     y[2,3,2]
 BV BOUND     y[2,3,3]
 BV BOUND     y[2,4,1]
 BV BOUND     y[2,4,2]
 BV BOUND     y[2,4,3]
 BV BOUND     z[1,1]  
 BV BOUND     z[1,2]  
 BV BOUND     z[1,3]  
 BV BOUND     z[2,1]  
 BV BOUND     z[2,2]  
 BV BOUND     z[2,3]  
 BV BOUND     z[3,1]  
 BV BOUND     z[3,2]  
 BV BOUND     z[3,3]  
 BV BOUND     z[4,1]  
 BV BOUND     z[4,2]  
 BV BOUND     z[4,3]  
ENDATA
